; Benchmark for LTL-sketching problem
(set-logic QF_UF)
(set-info :status unknown)
(declare-fun z_1_0_0 () Bool)
(declare-fun z_0_0_0 () Bool)
(declare-fun z_1_1_0 () Bool)
(declare-fun z_0_1_0 () Bool)
(declare-fun z_1_2_0 () Bool)
(declare-fun z_0_2_0 () Bool)
(declare-fun z_1_3_0 () Bool)
(declare-fun z_0_3_0 () Bool)
(declare-fun z_1_4_0 () Bool)
(declare-fun z_0_4_0 () Bool)
(declare-fun z_1_5_0 () Bool)
(declare-fun z_0_5_0 () Bool)
(declare-fun z_1_6_0 () Bool)
(declare-fun z_0_6_0 () Bool)
(declare-fun z_1_7_0 () Bool)
(declare-fun z_0_7_0 () Bool)
(declare-fun z_1_8_0 () Bool)
(declare-fun z_0_8_0 () Bool)
(declare-fun z_1_9_0 () Bool)
(declare-fun z_0_9_0 () Bool)
(declare-fun z_0_10_1 () Bool)
(declare-fun z_1_10_0 () Bool)
(declare-fun z_0_10_0 () Bool)
(declare-fun z_0_10_2 () Bool)
(declare-fun z_1_10_1 () Bool)
(declare-fun z_0_10_3 () Bool)
(declare-fun z_1_10_2 () Bool)
(declare-fun z_0_10_4 () Bool)
(declare-fun z_1_10_3 () Bool)
(declare-fun z_0_10_5 () Bool)
(declare-fun z_1_10_4 () Bool)
(declare-fun z_0_10_6 () Bool)
(declare-fun z_1_10_5 () Bool)
(declare-fun z_0_10_7 () Bool)
(declare-fun z_1_10_6 () Bool)
(declare-fun z_0_10_8 () Bool)
(declare-fun z_1_10_7 () Bool)
(declare-fun z_1_10_8 () Bool)
(declare-fun z_0_11_1 () Bool)
(declare-fun z_1_11_0 () Bool)
(declare-fun z_0_11_0 () Bool)
(declare-fun z_0_11_2 () Bool)
(declare-fun z_1_11_1 () Bool)
(declare-fun z_0_11_3 () Bool)
(declare-fun z_1_11_2 () Bool)
(declare-fun z_0_11_4 () Bool)
(declare-fun z_1_11_3 () Bool)
(declare-fun z_0_11_5 () Bool)
(declare-fun z_1_11_4 () Bool)
(declare-fun z_0_11_6 () Bool)
(declare-fun z_1_11_5 () Bool)
(declare-fun z_0_11_7 () Bool)
(declare-fun z_1_11_6 () Bool)
(declare-fun z_0_11_8 () Bool)
(declare-fun z_1_11_7 () Bool)
(declare-fun z_0_11_9 () Bool)
(declare-fun z_1_11_8 () Bool)
(declare-fun z_1_11_9 () Bool)
(declare-fun z_0_12_1 () Bool)
(declare-fun z_1_12_0 () Bool)
(declare-fun z_0_12_0 () Bool)
(declare-fun z_0_12_2 () Bool)
(declare-fun z_1_12_1 () Bool)
(declare-fun z_0_12_3 () Bool)
(declare-fun z_1_12_2 () Bool)
(declare-fun z_0_12_4 () Bool)
(declare-fun z_1_12_3 () Bool)
(declare-fun z_0_12_5 () Bool)
(declare-fun z_1_12_4 () Bool)
(declare-fun z_0_12_6 () Bool)
(declare-fun z_1_12_5 () Bool)
(declare-fun z_0_12_7 () Bool)
(declare-fun z_1_12_6 () Bool)
(declare-fun z_0_12_8 () Bool)
(declare-fun z_1_12_7 () Bool)
(declare-fun z_0_12_9 () Bool)
(declare-fun z_1_12_8 () Bool)
(declare-fun z_0_12_10 () Bool)
(declare-fun z_1_12_9 () Bool)
(declare-fun z_1_12_10 () Bool)
(declare-fun z_0_13_1 () Bool)
(declare-fun z_1_13_0 () Bool)
(declare-fun z_0_13_0 () Bool)
(declare-fun z_0_13_2 () Bool)
(declare-fun z_1_13_1 () Bool)
(declare-fun z_0_13_3 () Bool)
(declare-fun z_1_13_2 () Bool)
(declare-fun z_0_13_4 () Bool)
(declare-fun z_1_13_3 () Bool)
(declare-fun z_0_13_5 () Bool)
(declare-fun z_1_13_4 () Bool)
(declare-fun z_0_13_6 () Bool)
(declare-fun z_1_13_5 () Bool)
(declare-fun z_0_13_7 () Bool)
(declare-fun z_1_13_6 () Bool)
(declare-fun z_0_13_8 () Bool)
(declare-fun z_1_13_7 () Bool)
(declare-fun z_1_13_8 () Bool)
(declare-fun z_0_14_1 () Bool)
(declare-fun z_1_14_0 () Bool)
(declare-fun z_0_14_0 () Bool)
(declare-fun z_0_14_2 () Bool)
(declare-fun z_1_14_1 () Bool)
(declare-fun z_0_14_3 () Bool)
(declare-fun z_1_14_2 () Bool)
(declare-fun z_0_14_4 () Bool)
(declare-fun z_1_14_3 () Bool)
(declare-fun z_0_14_5 () Bool)
(declare-fun z_1_14_4 () Bool)
(declare-fun z_1_14_5 () Bool)
(declare-fun z_0_15_1 () Bool)
(declare-fun z_1_15_0 () Bool)
(declare-fun z_0_15_0 () Bool)
(declare-fun z_0_15_2 () Bool)
(declare-fun z_1_15_1 () Bool)
(declare-fun z_0_15_3 () Bool)
(declare-fun z_1_15_2 () Bool)
(declare-fun z_0_15_4 () Bool)
(declare-fun z_1_15_3 () Bool)
(declare-fun z_0_15_5 () Bool)
(declare-fun z_1_15_4 () Bool)
(declare-fun z_0_15_6 () Bool)
(declare-fun z_1_15_5 () Bool)
(declare-fun z_0_15_7 () Bool)
(declare-fun z_1_15_6 () Bool)
(declare-fun z_0_15_8 () Bool)
(declare-fun z_1_15_7 () Bool)
(declare-fun z_0_15_9 () Bool)
(declare-fun z_1_15_8 () Bool)
(declare-fun z_0_15_10 () Bool)
(declare-fun z_1_15_9 () Bool)
(declare-fun z_0_15_11 () Bool)
(declare-fun z_1_15_10 () Bool)
(declare-fun z_1_15_11 () Bool)
(declare-fun z_0_16_1 () Bool)
(declare-fun z_1_16_0 () Bool)
(declare-fun z_0_16_0 () Bool)
(declare-fun z_0_16_2 () Bool)
(declare-fun z_1_16_1 () Bool)
(declare-fun z_0_16_3 () Bool)
(declare-fun z_1_16_2 () Bool)
(declare-fun z_0_16_4 () Bool)
(declare-fun z_1_16_3 () Bool)
(declare-fun z_0_16_5 () Bool)
(declare-fun z_1_16_4 () Bool)
(declare-fun z_0_16_6 () Bool)
(declare-fun z_1_16_5 () Bool)
(declare-fun z_1_16_6 () Bool)
(declare-fun z_0_17_1 () Bool)
(declare-fun z_1_17_0 () Bool)
(declare-fun z_0_17_0 () Bool)
(declare-fun z_0_17_2 () Bool)
(declare-fun z_1_17_1 () Bool)
(declare-fun z_0_17_3 () Bool)
(declare-fun z_1_17_2 () Bool)
(declare-fun z_0_17_4 () Bool)
(declare-fun z_1_17_3 () Bool)
(declare-fun z_0_17_5 () Bool)
(declare-fun z_1_17_4 () Bool)
(declare-fun z_0_17_6 () Bool)
(declare-fun z_1_17_5 () Bool)
(declare-fun z_0_17_7 () Bool)
(declare-fun z_1_17_6 () Bool)
(declare-fun z_0_17_8 () Bool)
(declare-fun z_1_17_7 () Bool)
(declare-fun z_0_17_9 () Bool)
(declare-fun z_1_17_8 () Bool)
(declare-fun z_0_17_10 () Bool)
(declare-fun z_1_17_9 () Bool)
(declare-fun z_0_17_11 () Bool)
(declare-fun z_1_17_10 () Bool)
(declare-fun z_1_17_11 () Bool)
(declare-fun z_0_18_1 () Bool)
(declare-fun z_1_18_0 () Bool)
(declare-fun z_0_18_0 () Bool)
(declare-fun z_0_18_2 () Bool)
(declare-fun z_1_18_1 () Bool)
(declare-fun z_0_18_3 () Bool)
(declare-fun z_1_18_2 () Bool)
(declare-fun z_0_18_4 () Bool)
(declare-fun z_1_18_3 () Bool)
(declare-fun z_0_18_5 () Bool)
(declare-fun z_1_18_4 () Bool)
(declare-fun z_0_18_6 () Bool)
(declare-fun z_1_18_5 () Bool)
(declare-fun z_0_18_7 () Bool)
(declare-fun z_1_18_6 () Bool)
(declare-fun z_1_18_7 () Bool)
(declare-fun z_0_19_1 () Bool)
(declare-fun z_1_19_0 () Bool)
(declare-fun z_0_19_0 () Bool)
(declare-fun z_0_19_2 () Bool)
(declare-fun z_1_19_1 () Bool)
(declare-fun z_0_19_3 () Bool)
(declare-fun z_1_19_2 () Bool)
(declare-fun z_0_19_4 () Bool)
(declare-fun z_1_19_3 () Bool)
(declare-fun z_0_19_5 () Bool)
(declare-fun z_1_19_4 () Bool)
(declare-fun z_0_19_6 () Bool)
(declare-fun z_1_19_5 () Bool)
(declare-fun z_0_19_7 () Bool)
(declare-fun z_1_19_6 () Bool)
(declare-fun z_0_19_8 () Bool)
(declare-fun z_1_19_7 () Bool)
(declare-fun z_1_19_8 () Bool)
(assert
 (= z_0_0_0 (and z_1_0_0)))
(assert
 (= z_0_1_0 (and z_1_1_0)))
(assert
 (= z_0_2_0 (and z_1_2_0)))
(assert
 (= z_0_3_0 (and z_1_3_0)))
(assert
 (= z_0_4_0 (and z_1_4_0)))
(assert
 (= z_0_5_0 (and z_1_5_0)))
(assert
 (= z_0_6_0 (and z_1_6_0)))
(assert
 (= z_0_7_0 (and z_1_7_0)))
(assert
 (= z_0_8_0 (and z_1_8_0)))
(assert
 (= z_0_9_0 (and z_1_9_0)))
(assert
 (= z_0_10_0 (and z_1_10_0 z_0_10_1)))
(assert
 (= z_0_10_1 (and z_1_10_1 z_0_10_2)))
(assert
 (= z_0_10_2 (and z_1_10_2 z_0_10_3)))
(assert
 (= z_0_10_3 (and z_1_10_3 z_0_10_4)))
(assert
 (= z_0_10_4 (and z_1_10_4 z_0_10_5)))
(assert
 (= z_0_10_5 (and z_1_10_5 z_0_10_6)))
(assert
 (= z_0_10_6 (and z_1_10_6 z_0_10_7)))
(assert
 (= z_0_10_7 (and z_1_10_7 z_0_10_8)))
(assert
 (= z_0_10_8 (and z_1_10_4 z_1_10_5 z_1_10_6 z_1_10_7 z_1_10_8)))
(assert
 (= z_0_11_0 (and z_1_11_0 z_0_11_1)))
(assert
 (= z_0_11_1 (and z_1_11_1 z_0_11_2)))
(assert
 (= z_0_11_2 (and z_1_11_2 z_0_11_3)))
(assert
 (= z_0_11_3 (and z_1_11_3 z_0_11_4)))
(assert
 (= z_0_11_4 (and z_1_11_4 z_0_11_5)))
(assert
 (= z_0_11_5 (and z_1_11_5 z_0_11_6)))
(assert
 (= z_0_11_6 (and z_1_11_6 z_0_11_7)))
(assert
 (= z_0_11_7 (and z_1_11_7 z_0_11_8)))
(assert
 (= z_0_11_8 (and z_1_11_8 z_0_11_9)))
(assert
 (= z_0_11_9 (and z_1_11_6 z_1_11_7 z_1_11_8 z_1_11_9)))
(assert
 (= z_0_12_0 (and z_1_12_0 z_0_12_1)))
(assert
 (= z_0_12_1 (and z_1_12_1 z_0_12_2)))
(assert
 (= z_0_12_2 (and z_1_12_2 z_0_12_3)))
(assert
 (= z_0_12_3 (and z_1_12_3 z_0_12_4)))
(assert
 (= z_0_12_4 (and z_1_12_4 z_0_12_5)))
(assert
 (= z_0_12_5 (and z_1_12_5 z_0_12_6)))
(assert
 (= z_0_12_6 (and z_1_12_6 z_0_12_7)))
(assert
 (= z_0_12_7 (and z_1_12_7 z_0_12_8)))
(assert
 (= z_0_12_8 (and z_1_12_8 z_0_12_9)))
(assert
 (= z_0_12_9 (and z_1_12_9 z_0_12_10)))
(assert
 (= z_0_12_10 (and z_1_12_5 z_1_12_6 z_1_12_7 z_1_12_8 z_1_12_9 z_1_12_10)))
(assert
 (= z_0_13_0 (and z_1_13_0 z_0_13_1)))
(assert
 (= z_0_13_1 (and z_1_13_1 z_0_13_2)))
(assert
 (= z_0_13_2 (and z_1_13_2 z_0_13_3)))
(assert
 (= z_0_13_3 (and z_1_13_3 z_0_13_4)))
(assert
 (= z_0_13_4 (and z_1_13_4 z_0_13_5)))
(assert
 (= z_0_13_5 (and z_1_13_5 z_0_13_6)))
(assert
 (= z_0_13_6 (and z_1_13_6 z_0_13_7)))
(assert
 (= z_0_13_7 (and z_1_13_7 z_0_13_8)))
(assert
 (= z_0_13_8 (and z_1_13_4 z_1_13_5 z_1_13_6 z_1_13_7 z_1_13_8)))
(assert
 (= z_0_14_0 (and z_1_14_0 z_0_14_1)))
(assert
 (= z_0_14_1 (and z_1_14_1 z_0_14_2)))
(assert
 (= z_0_14_2 (and z_1_14_2 z_0_14_3)))
(assert
 (= z_0_14_3 (and z_1_14_3 z_0_14_4)))
(assert
 (= z_0_14_4 (and z_1_14_4 z_0_14_5)))
(assert
 (= z_0_14_5 (and z_1_14_1 z_1_14_2 z_1_14_3 z_1_14_4 z_1_14_5)))
(assert
 (= z_0_15_0 (and z_1_15_0 z_0_15_1)))
(assert
 (= z_0_15_1 (and z_1_15_1 z_0_15_2)))
(assert
 (= z_0_15_2 (and z_1_15_2 z_0_15_3)))
(assert
 (= z_0_15_3 (and z_1_15_3 z_0_15_4)))
(assert
 (= z_0_15_4 (and z_1_15_4 z_0_15_5)))
(assert
 (= z_0_15_5 (and z_1_15_5 z_0_15_6)))
(assert
 (= z_0_15_6 (and z_1_15_6 z_0_15_7)))
(assert
 (= z_0_15_7 (and z_1_15_7 z_0_15_8)))
(assert
 (= z_0_15_8 (and z_1_15_8 z_0_15_9)))
(assert
 (= z_0_15_9 (and z_1_15_9 z_0_15_10)))
(assert
 (= z_0_15_10 (and z_1_15_10 z_0_15_11)))
(assert
 (= z_0_15_11 (and z_1_15_6 z_1_15_7 z_1_15_8 z_1_15_9 z_1_15_10 z_1_15_11)))
(assert
 (= z_0_16_0 (and z_1_16_0 z_0_16_1)))
(assert
 (= z_0_16_1 (and z_1_16_1 z_0_16_2)))
(assert
 (= z_0_16_2 (and z_1_16_2 z_0_16_3)))
(assert
 (= z_0_16_3 (and z_1_16_3 z_0_16_4)))
(assert
 (= z_0_16_4 (and z_1_16_4 z_0_16_5)))
(assert
 (= z_0_16_5 (and z_1_16_5 z_0_16_6)))
(assert
 (= z_0_16_6 (and z_1_16_5 z_1_16_6)))
(assert
 (= z_0_17_0 (and z_1_17_0 z_0_17_1)))
(assert
 (= z_0_17_1 (and z_1_17_1 z_0_17_2)))
(assert
 (= z_0_17_2 (and z_1_17_2 z_0_17_3)))
(assert
 (= z_0_17_3 (and z_1_17_3 z_0_17_4)))
(assert
 (= z_0_17_4 (and z_1_17_4 z_0_17_5)))
(assert
 (= z_0_17_5 (and z_1_17_5 z_0_17_6)))
(assert
 (= z_0_17_6 (and z_1_17_6 z_0_17_7)))
(assert
 (= z_0_17_7 (and z_1_17_7 z_0_17_8)))
(assert
 (= z_0_17_8 (and z_1_17_8 z_0_17_9)))
(assert
 (= z_0_17_9 (and z_1_17_9 z_0_17_10)))
(assert
 (= z_0_17_10 (and z_1_17_10 z_0_17_11)))
(assert
 (= z_0_17_11 (and z_1_17_6 z_1_17_7 z_1_17_8 z_1_17_9 z_1_17_10 z_1_17_11)))
(assert
 (= z_0_18_0 (and z_1_18_0 z_0_18_1)))
(assert
 (= z_0_18_1 (and z_1_18_1 z_0_18_2)))
(assert
 (= z_0_18_2 (and z_1_18_2 z_0_18_3)))
(assert
 (= z_0_18_3 (and z_1_18_3 z_0_18_4)))
(assert
 (= z_0_18_4 (and z_1_18_4 z_0_18_5)))
(assert
 (= z_0_18_5 (and z_1_18_5 z_0_18_6)))
(assert
 (= z_0_18_6 (and z_1_18_6 z_0_18_7)))
(assert
 (= z_0_18_7 (and z_1_18_4 z_1_18_5 z_1_18_6 z_1_18_7)))
(assert
 (= z_0_19_0 (and z_1_19_0 z_0_19_1)))
(assert
 (= z_0_19_1 (and z_1_19_1 z_0_19_2)))
(assert
 (= z_0_19_2 (and z_1_19_2 z_0_19_3)))
(assert
 (= z_0_19_3 (and z_1_19_3 z_0_19_4)))
(assert
 (= z_0_19_4 (and z_1_19_4 z_0_19_5)))
(assert
 (= z_0_19_5 (and z_1_19_5 z_0_19_6)))
(assert
 (= z_0_19_6 (and z_1_19_6 z_0_19_7)))
(assert
 (= z_0_19_7 (and z_1_19_7 z_0_19_8)))
(assert
 (= z_0_19_8 (and z_1_19_4 z_1_19_5 z_1_19_6 z_1_19_7 z_1_19_8)))
(assert
 (= z_0_0_0 true))
(assert
 (= z_0_1_0 true))
(assert
 (= z_0_2_0 true))
(assert
 (= z_0_3_0 true))
(assert
 (= z_0_4_0 true))
(assert
 (= z_0_5_0 true))
(assert
 (= z_0_6_0 true))
(assert
 (= z_0_7_0 true))
(assert
 (= z_0_8_0 true))
(assert
 (= z_0_9_0 true))
(assert
 (= z_0_10_0 false))
(assert
 (= z_0_11_0 false))
(assert
 (= z_0_12_0 false))
(assert
 (= z_0_13_0 false))
(assert
 (= z_0_14_0 false))
(assert
 (= z_0_15_0 false))
(assert
 (= z_0_16_0 false))
(assert
 (= z_0_17_0 false))
(assert
 (= z_0_18_0 false))
(assert
 (= z_0_19_0 false))
(assert
 (let (($x475 (= z_1_0_0 z_1_1_0)))
 (and $x475)))
(assert
 (let (($x477 (= z_1_0_0 z_1_2_0)))
 (and $x477)))
(assert
 (let (($x479 (= z_1_0_0 z_1_3_0)))
 (and $x479)))
(assert
 (let (($x481 (= z_1_0_0 z_1_4_0)))
 (and $x481)))
(assert
 (let (($x483 (= z_1_0_0 z_1_5_0)))
 (and $x483)))
(assert
 (let (($x485 (= z_1_0_0 z_1_6_0)))
 (and $x485)))
(assert
 (let (($x487 (= z_1_0_0 z_1_7_0)))
 (and $x487)))
(assert
 (let (($x489 (= z_1_0_0 z_1_8_0)))
 (and $x489)))
(assert
 (let (($x491 (= z_1_0_0 z_1_9_0)))
 (and $x491)))
(assert
 (let (($x493 (= z_1_1_0 z_1_2_0)))
 (and $x493)))
(assert
 (let (($x495 (= z_1_1_0 z_1_3_0)))
 (and $x495)))
(assert
 (let (($x497 (= z_1_1_0 z_1_4_0)))
 (and $x497)))
(assert
 (let (($x499 (= z_1_1_0 z_1_5_0)))
 (and $x499)))
(assert
 (let (($x501 (= z_1_1_0 z_1_6_0)))
 (and $x501)))
(assert
 (let (($x503 (= z_1_1_0 z_1_7_0)))
 (and $x503)))
(assert
 (let (($x505 (= z_1_1_0 z_1_8_0)))
 (and $x505)))
(assert
 (let (($x507 (= z_1_1_0 z_1_9_0)))
 (and $x507)))
(assert
 (let (($x509 (= z_1_2_0 z_1_3_0)))
 (and $x509)))
(assert
 (let (($x511 (= z_1_2_0 z_1_4_0)))
 (and $x511)))
(assert
 (let (($x513 (= z_1_2_0 z_1_5_0)))
 (and $x513)))
(assert
 (let (($x515 (= z_1_2_0 z_1_6_0)))
 (and $x515)))
(assert
 (let (($x517 (= z_1_2_0 z_1_7_0)))
 (and $x517)))
(assert
 (let (($x519 (= z_1_2_0 z_1_8_0)))
 (and $x519)))
(assert
 (let (($x521 (= z_1_2_0 z_1_9_0)))
 (and $x521)))
(assert
 (let (($x523 (= z_1_3_0 z_1_4_0)))
 (and $x523)))
(assert
 (let (($x525 (= z_1_3_0 z_1_5_0)))
 (and $x525)))
(assert
 (let (($x527 (= z_1_3_0 z_1_6_0)))
 (and $x527)))
(assert
 (let (($x529 (= z_1_3_0 z_1_7_0)))
 (and $x529)))
(assert
 (let (($x531 (= z_1_3_0 z_1_8_0)))
 (and $x531)))
(assert
 (let (($x533 (= z_1_3_0 z_1_9_0)))
 (and $x533)))
(assert
 (let (($x535 (= z_1_4_0 z_1_5_0)))
 (and $x535)))
(assert
 (let (($x537 (= z_1_4_0 z_1_6_0)))
 (and $x537)))
(assert
 (let (($x539 (= z_1_4_0 z_1_7_0)))
 (and $x539)))
(assert
 (let (($x541 (= z_1_4_0 z_1_8_0)))
 (and $x541)))
(assert
 (let (($x543 (= z_1_4_0 z_1_9_0)))
 (and $x543)))
(assert
 (let (($x545 (= z_1_5_0 z_1_6_0)))
 (and $x545)))
(assert
 (let (($x547 (= z_1_5_0 z_1_7_0)))
 (and $x547)))
(assert
 (let (($x549 (= z_1_5_0 z_1_8_0)))
 (and $x549)))
(assert
 (let (($x551 (= z_1_5_0 z_1_9_0)))
 (and $x551)))
(assert
 (let (($x553 (= z_1_6_0 z_1_7_0)))
 (and $x553)))
(assert
 (let (($x555 (= z_1_6_0 z_1_8_0)))
 (and $x555)))
(assert
 (let (($x557 (= z_1_6_0 z_1_9_0)))
 (and $x557)))
(assert
 (let (($x559 (= z_1_7_0 z_1_8_0)))
 (and $x559)))
(assert
 (let (($x561 (= z_1_7_0 z_1_9_0)))
 (and $x561)))
(assert
 (let (($x563 (= z_1_8_0 z_1_9_0)))
 (and $x563)))
(assert
 (let (($x565 (= z_1_10_2 z_1_13_2)))
 (and $x565)))
(assert
 (let (($x567 (= z_1_10_3 z_1_13_3)))
 (and $x567)))
(assert
 (let (($x569 (= z_1_10_4 z_1_13_4)))
 (and $x569)))
(assert
 (let (($x571 (= z_1_10_5 z_1_13_5)))
 (and $x571)))
(assert
 (let (($x573 (= z_1_10_6 z_1_13_6)))
 (and $x573)))
(assert
 (let (($x575 (= z_1_10_7 z_1_13_7)))
 (and $x575)))
(assert
 (let (($x577 (= z_1_10_8 z_1_13_8)))
 (and $x577)))
(assert
 (let (($x579 (= z_1_10_2 z_1_19_2)))
 (and $x579)))
(assert
 (let (($x581 (= z_1_10_3 z_1_19_3)))
 (and $x581)))
(assert
 (let (($x583 (= z_1_10_4 z_1_19_4)))
 (and $x583)))
(assert
 (let (($x585 (= z_1_10_5 z_1_19_5)))
 (and $x585)))
(assert
 (let (($x587 (= z_1_10_6 z_1_19_6)))
 (and $x587)))
(assert
 (let (($x589 (= z_1_10_7 z_1_19_7)))
 (and $x589)))
(assert
 (let (($x591 (= z_1_10_8 z_1_19_8)))
 (and $x591)))
(assert
 (let (($x593 (= z_1_11_6 z_1_18_7)))
 (and $x593)))
(assert
 (let (($x595 (= z_1_11_7 z_1_18_4)))
 (and $x595)))
(assert
 (let (($x597 (= z_1_11_8 z_1_18_5)))
 (and $x597)))
(assert
 (let (($x599 (= z_1_11_9 z_1_18_6)))
 (and $x599)))
(assert
 (let (($x601 (= z_1_13_0 z_1_19_0)))
 (and $x601)))
(assert
 (let (($x603 (= z_1_13_1 z_1_19_1)))
 (and $x603)))
(assert
 (let (($x605 (= z_1_13_2 z_1_19_2)))
 (and $x605)))
(assert
 (let (($x607 (= z_1_13_3 z_1_19_3)))
 (and $x607)))
(assert
 (let (($x609 (= z_1_13_4 z_1_19_4)))
 (and $x609)))
(assert
 (let (($x611 (= z_1_13_5 z_1_19_5)))
 (and $x611)))
(assert
 (let (($x613 (= z_1_13_6 z_1_19_6)))
 (and $x613)))
(assert
 (let (($x615 (= z_1_13_7 z_1_19_7)))
 (and $x615)))
(assert
 (let (($x617 (= z_1_13_8 z_1_19_8)))
 (and $x617)))
(check-sat)

